WARNING: for repeatability, setting FPU to use double precision
============================[ Problem Statistics ]=============================
|                                                                             |
|  Number of variables:          4351                                         |
|  Number of clauses:           53513                                         |
|  Parse time:                   0.01 s                                       |
|  Eliminated clauses:           0.01 Mb                                      |
|  Simplification time:          0.02 s                                       |
|                                                                             |
============================[ Search Statistics ]==============================
| Conflicts |          ORIGINAL         |          LEARNT          | Progress |
|           |    Vars  Clauses Literals |    Limit  Clauses Lit/Cl |          |
===============================================================================
|       100 |     674     3848    11663 |     1410      100     15 | 61.296 % |
|       250 |     674     3848    11663 |     1552      250     20 | 61.296 % |
|       475 |     674     3848    11663 |     1707      475     31 | 61.296 % |
===============================================================================
restarts              : 5
conflicts             : 531            (18323 /sec)
decisions             : 1677           (0.00 % random) (57867 /sec)
propagations          : 28038          (967495 /sec)
conflict literals     : 18342          (8.93 % deleted)
Memory used           : 24.00 MB
CPU time              : 0.02898 s

SATISFIABLE
